
Gurobi 11.0.3 (linux64) logging started Thu Nov 21 23:09:11 2024

Set parameter LogFile to value "/home/yihong/Coding/OR_SUC/SUC_results_bigM100000_thread4/case24_ieee_rts_theta0.5_epsilon0.05_gurobi_seed340000_num_gen100_N_WDR100_load_scaling_factor1_exact_T16quadra_cost.txt"
Set parameter TimeLimit to value 3600
Gurobi Optimizer version 11.0.3 build v11.0.3rc0 (linux64 - "Ubuntu 20.04.6 LTS")

CPU model: AMD EPYC 7532 32-Core Processor, instruction set [SSE2|AVX|AVX2]
Thread count: 64 physical cores, 128 logical processors, using up to 4 threads

Optimize a model with 38307 rows, 20041 columns and 883306 nonzeros
Model fingerprint: 0x5529fbd6
Model has 1600 quadratic constraints
Variable types: 18341 continuous, 1700 integer (1700 binary)
Coefficient statistics:
  Matrix range     [3e-04, 1e+05]
  QMatrix range    [2e-03, 8e-03]
  QLMatrix range   [6e-02, 6e+01]
  Objective range  [1e+00, 1e+00]
  Bounds range     [1e+00, 1e+00]
  RHS range        [1e+00, 1e+05]
Presolve removed 31262 rows and 8501 columns
Presolve time: 0.27s
Presolved: 7045 rows, 11540 columns, 40168 nonzeros
Presolved model has 1600 quadratic constraint(s)
Variable types: 9854 continuous, 1686 integer (1686 binary)

Root relaxation: objective 3.044319e+04, 5374 iterations, 0.12 seconds (0.16 work units)

    Nodes    |    Current Node    |     Objective Bounds      |     Work
 Expl Unexpl |  Obj  Depth IntInf | Incumbent    BestBd   Gap | It/Node Time

     0     0 30443.1922    0   27          - 30443.1922      -     -    0s
     0     0 273075.648    0  402          - 273075.648      -     -    0s
     0     0 273306.896    0  398          - 273306.896      -     -    0s
     0     0 459304.393    0  356          - 459304.393      -     -    1s
     0     0 460343.800    0  261          - 460343.800      -     -    1s
     0     0 460514.674    0  216          - 460514.674      -     -    1s
     0     0 460517.464    0  216          - 460517.464      -     -    1s
     0     0 460517.464    0  216          - 460517.464      -     -    1s
     0     0 460517.829    0  216          - 460517.829      -     -    1s
     0     0 460519.139    0  216          - 460519.139      -     -    7s
     0     2 460519.139    0  216          - 460519.139      -     -    7s
H  461   366                    460545.10236 460527.900  0.00%  37.6    9s
*  461   366              83    460545.10236 460527.900  0.00%  37.7    9s

Cutting planes:
  Gomory: 20
  Implied bound: 343
  MIR: 182
  Flow cover: 98
  RLT: 12
  Relax-and-lift: 6

Explored 496 nodes (33406 simplex iterations) in 9.81 seconds (8.43 work units)
Thread count was 4 (of 128 available processors)

Solution count 2: 460545 460545 

Optimal solution found (tolerance 1.00e-03)
Warning: max constraint violation (1.7430e-06) exceeds tolerance
Best objective 4.605451023566e+05, best bound 4.605279000178e+05, gap 0.0037%
